decision_x1=[0,4];
decision_x2=[0,4];
decision_x3=[0,4];
decision_x4=[0,4];
decision_x5=[0,4];
decision_x6=[0,4];
decision_x7=[0,4];
decision_x8=[0,4];
random_y1=[0,4];
random_y2=[0,4];
random_y3=[0,4];
random_y4=[0,4];
constraint_x4_x1=[
0,1,0.74|
0,2,5.2|
0,3,2|
0,4,0.93|
1,0,5.9|
1,2,6.6|
1,3,3.3|
1,4,1.9|
2,0,1.1|
2,1,2.2|
2,3,8.2|
2,4,1.3|
3,0,8.6|
3,1,3.3|
3,2,8.4|
3,4,2.2|
4,0,3.7|
4,1,1.7|
4,2,4.4|
4,3,6.1|
];
constraint_x4_x2=[
0,1,9.6|
0,2,4.8|
0,3,3.5|
0,4,4.6|
1,0,5.9|
1,2,0.18|
1,3,9.2|
1,4,5|
2,0,8.4|
2,1,1.1|
2,3,5.2|
2,4,4.4|
3,0,7.7|
3,1,3.3|
3,2,3.4|
3,4,4.8|
4,0,6.9|
4,1,8.8|
4,2,3.7|
4,3,3.2|
];
constraint_x4_x3=[
0,1,4.4|
0,2,6.3|
0,3,3.6|
0,4,5.9|
1,0,6.9|
1,2,7.3|
1,3,0.79|
1,4,4|
2,0,0.31|
2,1,8.3|
2,3,9|
2,4,8.8|
3,0,5.3|
3,1,2.8|
3,2,5.1|
3,4,7.7|
4,0,9.8|
4,1,0.1|
4,2,3.6|
4,3,6.3|
];
constraint_x5_x4=[
0,1,2.6|
0,2,5.3|
0,3,9.1|
0,4,3.9|
1,0,1|
1,2,3.3|
1,3,5.8|
1,4,5|
2,0,6.9|
2,1,7.7|
2,3,8.3|
2,4,3.7|
3,0,6.9|
3,1,2.6|
3,2,2.4|
3,4,5.1|
4,0,0.15|
4,1,5.1|
4,2,0.18|
4,3,0.6|
];
constraint_x6_x3=[
0,1,1.2|
0,2,6.5|
0,3,4.9|
0,4,2.9|
1,0,4.1|
1,2,6.6|
1,3,4.6|
1,4,3.6|
2,0,0.73|
2,1,8.8|
2,3,4.3|
2,4,7.8|
3,0,6.6|
3,1,6.8|
3,2,3.4|
3,4,8.9|
4,0,4|
4,1,7.7|
4,2,2.9|
4,3,0.37|
];
constraint_x6_x4=[
0,1,8.5|
0,2,8|
0,3,1.6|
0,4,7.8|
1,0,5.3|
1,2,2.6|
1,3,8.4|
1,4,8.7|
2,0,0.81|
2,1,9.1|
2,3,3.4|
2,4,6.8|
3,0,4.8|
3,1,5.1|
3,2,0.65|
3,4,9.7|
4,0,6.6|
4,1,7.2|
4,2,9.3|
4,3,5.7|
];
constraint_x6_x5=[
0,1,2|
0,2,3.4|
0,3,6.8|
0,4,0.82|
1,0,6.6|
1,2,0.074|
1,3,4.4|
1,4,6.5|
2,0,9.8|
2,1,7.8|
2,3,0.7|
2,4,0.34|
3,0,9|
3,1,5.7|
3,2,9.7|
3,4,2|
4,0,3|
4,1,1.8|
4,2,5.6|
4,3,2.8|
];
constraint_x7_x1=[
0,1,5.4|
0,2,4|
0,3,6.9|
0,4,3.9|
1,0,4.3|
1,2,2.8|
1,3,5.4|
1,4,8.6|
2,0,3.6|
2,1,5.9|
2,3,5.4|
2,4,7.8|
3,0,0.47|
3,1,4.9|
3,2,1.6|
3,4,7.7|
4,0,10|
4,1,8.5|
4,2,2|
4,3,8.9|
];
constraint_x7_x2=[
0,1,7.5|
0,2,5.6|
0,3,3.4|
0,4,6.9|
1,0,1.7|
1,2,9.8|
1,3,1|
1,4,1.6|
2,0,0.43|
2,1,8.5|
2,3,8.9|
2,4,4.1|
3,0,2.3|
3,1,7.1|
3,2,9|
3,4,10|
4,0,1.1|
4,1,2.4|
4,2,4.3|
4,3,4|
];
constraint_x7_x5=[
0,1,9.4|
0,2,2.7|
0,3,5.7|
0,4,6.3|
1,0,2.4|
1,2,7.4|
1,3,4.2|
1,4,7.5|
2,0,8.2|
2,1,7|
2,3,8.6|
2,4,6.3|
3,0,6.7|
3,1,5.2|
3,2,6.9|
3,4,9.1|
4,0,1.6|
4,1,4.5|
4,2,4.3|
4,3,4.5|
];
constraint_x8_x4=[
0,1,5.9|
0,2,2.2|
0,3,9.1|
0,4,6.1|
1,0,4.2|
1,2,8.8|
1,3,5.4|
1,4,10|
2,0,10|
2,1,4.5|
2,3,5.5|
2,4,8.5|
3,0,3.9|
3,1,9.2|
3,2,5.6|
3,4,0.96|
4,0,0.48|
4,1,8.5|
4,2,10|
4,3,2.6|
];
constraint_x8_x5=[
0,1,8.8|
0,2,9.4|
0,3,5.2|
0,4,8.5|
1,0,6.9|
1,2,4|
1,3,0.1|
1,4,0.29|
2,0,2.7|
2,1,7.9|
2,3,5.5|
2,4,2.2|
3,0,4.7|
3,1,7.8|
3,2,6.6|
3,4,2.7|
4,0,1|
4,1,4|
4,2,7.1|
4,3,9.5|
];
constraint_x8_x6=[
0,1,1.1|
0,2,3.7|
0,3,9|
0,4,2|
1,0,9.6|
1,2,7.9|
1,3,5.4|
1,4,7.8|
2,0,6.8|
2,1,8.5|
2,3,6.5|
2,4,1.1|
3,0,8.2|
3,1,9.6|
3,2,0.28|
3,4,6.1|
4,0,0.0023|
4,1,4.4|
4,2,7.1|
4,3,1.1|
];
constraint_x8_x7=[
0,1,3|
0,2,9.5|
0,3,1.9|
0,4,5.8|
1,0,7.3|
1,2,2.7|
1,3,8.1|
1,4,3.9|
2,0,0.014|
2,1,3.5|
2,3,3.5|
2,4,8.9|
3,0,6|
3,1,8.9|
3,2,2.4|
3,4,3.3|
4,0,8.1|
4,1,0.71|
4,2,3|
4,3,0.46|
];
constraint_x1_y1=[
0,0,1.4|
0,1,8.5|
0,2,2.5|
0,3,3.5|
0,4,7.7|
1,0,2.9|
1,1,4.1|
1,2,3.8|
1,3,0.4|
1,4,3.3|
2,0,6.2|
2,1,9.4|
2,2,3.9|
2,3,7.9|
2,4,1.7|
3,0,5.6|
3,1,1.1|
3,2,7|
3,3,8.2|
3,4,9.5|
4,0,9.9|
4,1,9|
4,2,9.7|
4,3,5.8|
4,4,7.5|
];
constraint_x2_y2=[
0,0,5.7|
0,1,6.7|
0,2,0.5|
0,3,1|
0,4,1.6|
1,0,4.5|
1,1,8.1|
1,2,3.3|
1,3,6.3|
1,4,0.83|
2,0,4.7|
2,1,4.3|
2,2,7.8|
2,3,9.2|
2,4,0.57|
3,0,4.5|
3,1,1.8|
3,2,3.4|
3,3,4.2|
3,4,7.5|
4,0,4.9|
4,1,3.7|
4,2,1.2|
4,3,8.6|
4,4,2.6|
];
constraint_x3_y3=[
0,0,6.6|
0,1,5.6|
0,2,7.7|
0,3,7.7|
0,4,8.8|
1,0,4.6|
1,1,3.7|
1,2,3.3|
1,3,7|
1,4,7.4|
2,0,4.4|
2,1,4.7|
2,2,0.36|
2,3,5.6|
2,4,4.7|
3,0,0.92|
3,1,1.5|
3,2,4.5|
3,3,8.1|
3,4,9.3|
4,0,7.7|
4,1,8.2|
4,2,2.4|
4,3,4.7|
4,4,4.7|
];
constraint_x4_y4=[
0,0,1.1|
0,1,7.1|
0,2,3.4|
0,3,0.15|
0,4,3.4|
1,0,0.55|
1,1,1.4|
1,2,5.7|
1,3,2.8|
1,4,5.1|
2,0,7.6|
2,1,0.1|
2,2,3.1|
2,3,7.7|
2,4,0.25|
3,0,6.8|
3,1,0.6|
3,2,4.1|
3,3,4.8|
3,4,7.9|
4,0,7|
4,1,5.8|
4,2,8.2|
4,3,2.8|
4,4,5.4|
];
initial_distribution_y1=[0.13,0.25,0.25,0.27,0.096];
initial_distribution_y2=[0.26,0.22,0.11,0.29,0.12];
initial_distribution_y3=[0.37,0.11,0.14,0.37,0.024];
initial_distribution_y4=[0.12,0.24,0.048,0.15,0.44];
transition_y1=[
0.28,0.16,0.24,0.073,0.24|
0.28,0.17,0.13,0.21,0.21|
0.17,0.19,0.27,0.19,0.18|
0.01,0.29,0.35,0.22,0.14|
0.23,0.22,0.074,0.21,0.26|
];
transition_y2=[
0.14,0.29,0.04,0.19,0.33|
0.15,0.11,0.24,0.27,0.23|
0.32,0.17,0.14,0.11,0.25|
0.011,0.31,0.15,0.29,0.24|
0.037,0.28,0.09,0.3,0.29|
];
transition_y3=[
0.12,0.19,0.24,0.24,0.2|
0.15,0.53,0.13,0.037,0.17|
0.39,0.14,0.07,0.2,0.2|
0.27,0.26,0.15,0.16,0.16|
0.065,0.13,0.15,0.27,0.38|
];
transition_y4=[
0.29,0.083,0.13,0.14,0.36|
0.11,0.041,0.41,0.055,0.38|
0.14,0.18,0.26,0.4,0.012|
0.26,0.12,0.3,0.087,0.23|
0.35,0.21,0.35,0.046,0.041|
];
